947,599
947,364
664,382
741,406
148,322
823,360
1036,350
1055,216
450,-48
695,494
542,833
1191,406
504,378
533,554
606,880
269,107
761,366
627,300
898,-21
387,555
702,427
792,64
512,575
510,351
681,766
548,474
838,-79
606,-68
644,169
699,349
1020,160
196,563
570,748
668,432
646,358
912,860
